(set-logic QF_S)
(declare-fun var0 () String)
(declare-fun var1 () String)
(declare-fun var2 () String)
(declare-fun var3 () String)
(declare-fun var4 () String)
(declare-fun var5 () String)
(declare-fun var6 () String)
(declare-fun var7 () String)
(declare-fun var8 () String)
(declare-fun var9 () String)
(declare-fun var10 () String)
(declare-fun var11 () String)
(declare-fun var12 () String)
(declare-fun var13 () String)
(declare-fun var14 () String)
(declare-fun var15 () String)
(declare-fun var16 () String)
(declare-fun var17 () String)
(declare-fun var18 () String)
(declare-fun var19 () String)
(declare-fun var20 () String)
(declare-fun var21 () String)
(declare-fun var22 () String)
(declare-fun var23 () String)
(declare-fun var24 () String)
(declare-fun var25 () String)
(declare-fun var26 () String)
(declare-fun var27 () String)
(declare-fun var28 () String)
(declare-fun var29 () String)
(declare-fun var30 () String)
(declare-fun var31 () String)
(declare-fun var32 () String)
(declare-fun var33 () String)
(declare-fun var34 () String)
(declare-fun var35 () String)
(declare-fun var36 () String)
(declare-fun var37 () String)
(declare-fun var38 () String)
(declare-fun var39 () String)
(declare-fun var40 () String)
(declare-fun var41 () String)
(declare-fun var42 () String)
(declare-fun var43 () String)
(declare-fun var44 () String)
(declare-fun var45 () String)
(declare-fun var46 () String)
(declare-fun var47 () String)
(declare-fun var48 () String)
(declare-fun var49 () String)
(declare-fun var50 () String)
(declare-fun var51 () String)
(declare-fun var52 () String)
(declare-fun var53 () String)
(declare-fun var54 () String)
(declare-fun var55 () String)
(declare-fun var56 () String)
(declare-fun var57 () String)
(declare-fun var58 () String)
(declare-fun var59 () String)
(declare-fun var60 () String)
(assert (= var0 (Concat var1 var2)))
(assert (= var2 (Concat var3 var4)))
(assert (= var4 (Concat var5 var6)))
(assert (= var6 (Concat var7 var8)))
(assert (= var8 (Concat var9 var10)))
(assert (= var10 (Concat var11 var12)))
(assert (= var12 (Concat var13 var14)))
(assert (= var14 (Concat var15 var16)))
(assert (= var16 (Concat var17 var18)))
(assert (= var18 (Concat var19 var20)))
(assert (= var20 (Concat var21 var22)))
(assert (= var22 (Concat var23 var24)))
(assert (= var24 (Concat var25 var26)))
(assert (= var26 (Concat var27 var28)))
(assert (= var28 (Concat var29 var30)))
(assert (= var30 (Concat var31 var32)))
(assert (= var32 (Concat var33 var34)))
(assert (= var34 (Concat var35 var36)))
(assert (= var36 (Concat var37 var38)))
(assert (= var38 (Concat var39 var40)))
(assert (= var40 (Concat var41 var42)))
(assert (= var42 (Concat var43 var44)))
(assert (= var44 (Concat var45 var46)))
(assert (= var46 (Concat var47 var48)))
(assert (= var48 (Concat var49 var50)))
(assert (= var50 (Concat var51 var52)))
(assert (= var52 (Concat var53 var54)))
(assert (= var54 (Concat var55 var56)))
(assert (= var56 (Concat var57 var58)))
(assert (= var58 (Concat var59 var60)))
(assert (= var0 "solution"))
(assert (= "I" (CharAt var5 185)))
(assert (= "w" (CharAt var60 224)))
(assert (= "P" (CharAt var2 570)))
(assert (= "[" (CharAt var11 258)))
(assert (= "+" (CharAt var29 86)))
(assert (= "`" (CharAt var20 455)))
(assert (= "`" (CharAt var1 518)))
(assert (= "7" (CharAt var19 469)))
(assert (= "K" (CharAt var7 263)))
(assert (= "m" (CharAt var26 921)))
(assert (= "8" (CharAt var18 335)))
(assert (= "I" (CharAt var18 462)))
(assert (= "N" (CharAt var51 141)))
(assert (= "O" (CharAt var3 893)))
(assert (= "_" (CharAt var18 68)))
(assert (= "`" (CharAt var15 703)))
(assert (= "'" (CharAt var19 39)))
(assert (= "H" (CharAt var22 862)))
(assert (= "~" (CharAt var59 6)))
(assert (= "R" (CharAt var12 726)))
(assert (= "]" (CharAt var35 487)))
(assert (= "H" (CharAt var15 959)))
(assert (= "_" (CharAt var48 360)))
(assert (= "h" (CharAt var17 354)))
(assert (= "{" (CharAt var54 492)))
(assert (= "~" (CharAt var48 754)))
(assert (= "<" (CharAt var9 120)))
(assert (= "N" (CharAt var33 33)))
(assert (= "q" (CharAt var34 786)))
(assert (= "X" (CharAt var54 152)))
(assert (= "K" (CharAt var7 304)))
(assert (= "[" (CharAt var46 724)))
(assert (= "n" (CharAt var8 127)))
(assert (= "r" (CharAt var53 213)))
(assert (= "k" (CharAt var43 797)))
(assert (= "," (CharAt var7 338)))
(assert (= ";" (CharAt var15 565)))
(assert (= "\\" (CharAt var48 752)))
(assert (= "{" (CharAt var34 184)))
(assert (= "p" (CharAt var11 622)))
(assert (= "(" (CharAt var16 988)))
(assert (= "B" (CharAt var30 191)))
(assert (= "0" (CharAt var30 987)))
(assert (= "`" (CharAt var35 798)))
(assert (= "U" (CharAt var44 829)))
(assert (= "k" (CharAt var30 894)))
(assert (= "g" (CharAt var7 874)))
(assert (= "Z" (CharAt var9 228)))
(assert (= "s" (CharAt var35 101)))
(assert (= "c" (CharAt var28 540)))
(assert (= "V" (CharAt var47 972)))
(assert (= "&" (CharAt var34 728)))
(assert (= "+" (CharAt var22 307)))
(assert (= "/" (CharAt var8 166)))
(assert (= "E" (CharAt var46 932)))
(assert (= "6" (CharAt var51 604)))
(assert (= "v" (CharAt var12 135)))
(assert (= "C" (CharAt var30 838)))
(assert (= "(" (CharAt var33 71)))
(assert (= "h" (CharAt var25 297)))
(assert (= "Z" (CharAt var49 228)))
(assert (= "H" (CharAt var44 866)))
(assert (= "n" (CharAt var55 279)))
(assert (= "7" (CharAt var41 320)))
(assert (= "O" (CharAt var18 291)))
(assert (= "%" (CharAt var51 316)))
(assert (= "z" (CharAt var39 428)))
(assert (= "X" (CharAt var20 121)))
(assert (= "j" (CharAt var20 503)))
(assert (= "}" (CharAt var45 194)))
(assert (= "i" (CharAt var52 146)))
(assert (= "E" (CharAt var7 619)))
(assert (= "&" (CharAt var44 584)))
(assert (= "@" (CharAt var44 325)))
(assert (= "@" (CharAt var31 655)))
(assert (= "5" (CharAt var22 245)))
(assert (= "c" (CharAt var38 417)))
(assert (= "Y" (CharAt var9 256)))
(assert (= "W" (CharAt var8 173)))
(assert (= "C" (CharAt var18 853)))
(assert (= "@" (CharAt var47 90)))
(assert (= "o" (CharAt var54 34)))
(assert (= "m" (CharAt var40 199)))
(assert (= "l" (CharAt var2 328)))
(assert (= "9" (CharAt var37 723)))
(assert (= ":" (CharAt var13 54)))
(assert (= "w" (CharAt var14 384)))
(assert (= "a" (CharAt var0 940)))
(assert (= "1" (CharAt var25 385)))
(assert (= "[" (CharAt var59 145)))
(assert (= "=" (CharAt var5 883)))
(assert (= "e" (CharAt var29 257)))
(assert (= "_" (CharAt var55 614)))
(assert (= "f" (CharAt var49 291)))
(assert (= "w" (CharAt var15 365)))
(assert (= "5" (CharAt var40 476)))
(assert (= "1" (CharAt var17 297)))
(assert (= "!" (CharAt var49 747)))
(assert (= "t" (CharAt var43 320)))
(assert (= "4" (CharAt var54 14)))
(assert (= "b" (CharAt var31 318)))
(assert (= "&" (CharAt var4 466)))
(assert (= "0" (CharAt var56 455)))
(assert (= "g" (CharAt var29 506)))
(assert (= "?" (CharAt var36 989)))
(assert (= "s" (CharAt var55 630)))
(assert (= "#" (CharAt var50 241)))
(assert (= ";" (CharAt var26 457)))
(assert (= "P" (CharAt var19 188)))
(assert (= "z" (CharAt var24 482)))
(assert (= "T" (CharAt var55 165)))
(assert (= "H" (CharAt var48 76)))
(assert (= "p" (CharAt var52 971)))
(assert (= "K" (CharAt var12 15)))
(assert (= "/" (CharAt var14 890)))
(assert (= "r" (CharAt var0 240)))
(assert (= "=" (CharAt var9 817)))
(assert (= "%" (CharAt var22 656)))
(assert (= "j" (CharAt var7 342)))
(assert (= "G" (CharAt var17 415)))
(assert (= ")" (CharAt var37 644)))
(assert (= "X" (CharAt var0 577)))
(assert (= "i" (CharAt var4 256)))
(assert (= "6" (CharAt var17 968)))
(assert (= "_" (CharAt var18 318)))
(assert (= "T" (CharAt var48 572)))
(assert (= "k" (CharAt var46 331)))
(assert (= "b" (CharAt var0 635)))
(assert (= "(" (CharAt var8 22)))
(assert (= "@" (CharAt var29 236)))
(assert (= "Z" (CharAt var35 483)))
(assert (= "g" (CharAt var1 421)))
(assert (= "W" (CharAt var46 407)))
(assert (= ">" (CharAt var22 479)))
(assert (= "M" (CharAt var17 767)))
(assert (= "?" (CharAt var39 426)))
(assert (= ">" (CharAt var29 501)))
(assert (= ")" (CharAt var32 7)))
(assert (= "P" (CharAt var10 824)))
(assert (= "t" (CharAt var14 136)))
(assert (= "E" (CharAt var50 301)))
(assert (= "&" (CharAt var50 160)))
(assert (= "|" (CharAt var13 207)))
(assert (= "_" (CharAt var12 679)))
(assert (= "C" (CharAt var46 921)))
(assert (= "C" (CharAt var27 712)))
(assert (= "m" (CharAt var38 337)))
(assert (= "w" (CharAt var13 155)))
(assert (= "A" (CharAt var25 302)))
(assert (= "p" (CharAt var2 822)))
(assert (= "}" (CharAt var37 640)))
(assert (= "I" (CharAt var26 114)))
(assert (= "F" (CharAt var13 0)))
(assert (= "U" (CharAt var36 494)))
(assert (= "z" (CharAt var60 342)))
(assert (= "B" (CharAt var37 114)))
(assert (= "A" (CharAt var3 731)))
(assert (= "_" (CharAt var4 328)))
(assert (= "," (CharAt var28 569)))
(assert (= "x" (CharAt var37 473)))
(assert (= "," (CharAt var6 967)))
(check-sat)